c Generated map
c Size: 10 * 10, weights in range: 1 to 10, walls: True, with ratio 0.05
c dim 2 of 6
c
p sp 100 161
c graph contains 100 nodes and 161 arcs
c
a 1 11 8
a 11 1 8
a 1 2 3
a 2 1 3
a 2 12 5
a 12 2 5
a 2 3 9
a 3 2 9
a 3 13 10
a 13 3 10
a 3 4 5
a 4 3 5
a 4 14 4
a 14 4 4
a 4 5 9
a 5 4 9
a 5 15 7
a 15 5 7
a 5 6 1
a 6 5 1
a 6 16 4
a 16 6 4
a 6 7 2
a 7 6 2
a 7 17 7
a 17 7 7
a 7 8 7
a 8 7 7
a 8 18 2
a 18 8 2
a 8 9 1
a 9 8 1
a 9 19 9
a 19 9 9
a 9 10 10
a 10 9 10
a 10 20 9
a 20 10 9
a 11 21 1
a 21 11 1
a 11 12 9
a 12 11 9
a 12 22 6
a 22 12 6
a 12 13 1
a 13 12 1
a 13 23 4
a 23 13 4
a 13 14 10
a 14 13 10
a 14 24 4
a 24 14 4
a 14 15 10
a 15 14 10
a 15 16 10
a 16 15 10
a 16 26 3
a 26 16 3
a 16 17 10
a 17 16 10
a 17 27 2
a 27 17 2
a 17 18 5
a 18 17 5
a 18 19 8
a 19 18 8
a 19 29 4
a 29 19 4
a 19 20 1
a 20 19 1
a 20 30 1
a 30 20 1
a 21 31 9
a 31 21 9
a 21 22 7
a 22 21 7
a 22 32 3
a 32 22 3
a 22 23 5
a 23 22 5
a 23 33 6
a 33 23 6
a 23 24 1
a 24 23 1
a 24 34 1
a 34 24 1
a 26 27 4
a 27 26 4
a 27 37 10
a 37 27 10
a 29 39 8
a 39 29 8
a 29 30 6
a 30 29 6
a 30 40 7
a 40 30 7
a 31 41 1
a 41 31 1
a 31 32 7
a 32 31 7
a 32 42 7
a 42 32 7
a 32 33 5
a 33 32 5
a 33 43 7
a 43 33 7
a 33 34 5
a 34 33 5
a 34 44 5
a 44 34 5
a 34 35 3
a 35 34 3
a 35 45 2
a 45 35 2
a 37 47 9
a 47 37 9
a 37 38 1
a 38 37 1
a 38 48 3
a 48 38 3
a 38 39 3
a 39 38 3
a 39 49 3
a 49 39 3
a 39 40 6
a 40 39 6
a 40 50 8
a 50 40 8
a 41 51 3
a 51 41 3
a 41 42 8
a 42 41 8
a 42 52 7
a 52 42 7
a 42 43 4
a 43 42 4
a 43 53 3
a 53 43 3
a 43 44 2
a 44 43 2
a 44 54 7
a 54 44 7
a 44 45 8
a 45 44 8
a 45 55 8
a 55 45 8
a 45 46 9
a 46 45 9
a 46 56 1
a 56 46 1
a 46 47 7
a 47 46 7
a 47 57 4
a 57 47 4
a 47 48 7
a 48 47 7
a 48 58 9
a 58 48 9
a 48 49 5
a 49 48 5
a 49 59 7
a 59 49 7
a 49 50 6
a 50 49 6
a 50 60 1
a 60 50 1
a 51 61 9
a 61 51 9
a 51 52 4
a 52 51 4
a 52 62 9
a 62 52 9
a 52 53 10
a 53 52 10
a 53 63 5
a 63 53 5
a 53 54 7
a 54 53 7
a 54 64 8
a 64 54 8
a 54 55 5
a 55 54 5
a 55 65 1
a 65 55 1
a 55 56 5
a 56 55 5
a 56 57 10
a 57 56 10
a 57 67 5
a 67 57 5
a 57 58 2
a 58 57 2
a 58 68 6
a 68 58 6
a 58 59 3
a 59 58 3
a 59 69 5
a 69 59 5
a 59 60 5
a 60 59 5
a 61 71 7
a 71 61 7
a 61 62 3
a 62 61 3
a 62 72 7
a 72 62 7
a 62 63 10
a 63 62 10
a 63 73 5
a 73 63 5
a 63 64 2
a 64 63 2
a 64 74 7
a 74 64 7
a 64 65 9
a 65 64 9
a 65 75 7
a 75 65 7
a 67 77 9
a 77 67 9
a 67 68 6
a 68 67 6
a 68 78 5
a 78 68 5
a 68 69 8
a 69 68 8
a 69 79 5
a 79 69 5
a 71 81 6
a 81 71 6
a 71 72 9
a 72 71 9
a 72 82 2
a 82 72 2
a 72 73 5
a 73 72 5
a 73 83 3
a 83 73 3
a 73 74 3
a 74 73 3
a 74 84 5
a 84 74 5
a 74 75 6
a 75 74 6
a 75 85 8
a 85 75 8
a 75 76 3
a 76 75 3
a 76 86 3
a 86 76 3
a 76 77 3
a 77 76 3
a 77 87 4
a 87 77 4
a 77 78 3
a 78 77 3
a 78 88 7
a 88 78 7
a 78 79 10
a 79 78 10
a 79 89 7
a 89 79 7
a 79 80 9
a 80 79 9
a 80 90 6
a 90 80 6
a 81 91 5
a 91 81 5
a 81 82 7
a 82 81 7
a 82 92 3
a 92 82 3
a 82 83 2
a 83 82 2
a 83 93 8
a 93 83 8
a 83 84 1
a 84 83 1
a 84 94 5
a 94 84 5
a 84 85 1
a 85 84 1
a 85 95 4
a 95 85 4
a 85 86 6
a 86 85 6
a 86 96 2
a 96 86 2
a 86 87 5
a 87 86 5
a 87 97 1
a 97 87 1
a 87 88 2
a 88 87 2
a 88 98 9
a 98 88 9
a 88 89 3
a 89 88 3
a 89 99 8
a 99 89 8
a 89 90 10
a 90 89 10
a 90 100 6
a 100 90 6
a 91 92 3
a 92 91 3
a 92 93 7
a 93 92 7
a 93 94 5
a 94 93 5
a 94 95 7
a 95 94 7
a 95 96 4
a 96 95 4
a 96 97 8
a 97 96 8
a 97 98 3
a 98 97 3
a 98 99 3
a 99 98 3
a 99 100 8
a 100 99 8
